NAME          RANGES_TEST
ROWS
 N  COST
 G  LIM1
 L  LIM2
 E  LIM3
COLUMNS
    X         COST      1.0        LIM1      1.0
    X         LIM2      2.0        LIM3      1.0
    Y         COST      2.0        LIM1      1.0
    Y         LIM3      1.0
RHS
    RHS       LIM1      2.0        LIM2      10.0
    RHS       LIM3      5.0
RANGES
    RNG       LIM1      4.0        LIM2      3.0
    RNG       LIM3      2.0
ENDATA
